NAME : L141
COMMENT : 29154.34
TYPE : CVRP
DIMENSION : 961
MAXVEHICLES : 7
EDGE_WEIGHT_TYPE : EUC_2D
CAPACITY : 2000
DISTANCE : 4000
SERVICE_TIME : 10
TOTALPROFITS : 19152
NODE_COORD_SECTION
1 0.0000 0.0000
2 30.0000 0.0000
3 29.6307 4.6930
4 28.5317 9.2705
5 26.7302 13.6197
6 24.2705 17.6336
7 21.2132 21.2132
8 17.6336 24.2705
9 13.6197 26.7302
10 9.2705 28.5317
11 4.6930 29.6307
12 0.0000 30.0000
13 -4.6930 29.6307
14 -9.2705 28.5317
15 -13.6197 26.7302
16 -17.6336 24.2705
17 -21.2132 21.2132
18 -24.2705 17.6336
19 -26.7302 13.6197
20 -28.5317 9.2705
21 -29.6307 4.6930
22 -30.0000 0.0000
23 -29.6307 -4.6930
24 -28.5317 -9.2705
25 -26.7302 -13.6197
26 -24.2705 -17.6336
27 -21.2132 -21.2132
28 -17.6336 -24.2705
29 -13.6197 -26.7302
30 -9.2705 -28.5317
31 -4.6930 -29.6307
32 -0.0000 -30.0000
33 4.6930 -29.6307
34 9.2705 -28.5317
35 13.6197 -26.7302
36 17.6336 -24.2705
37 21.2132 -21.2132
38 24.2705 -17.6336
39 26.7302 -13.6197
40 28.5317 -9.2705
41 29.6307 -4.6930
42 60.0000 0.0000
43 59.2613 9.3861
44 57.0634 18.5410
45 53.4604 27.2394
46 48.5410 35.2671
47 42.4264 42.4264
48 35.2671 48.5410
49 27.2394 53.4604
50 18.5410 57.0634
51 9.3861 59.2613
52 0.0000 60.0000
53 -9.3861 59.2613
54 -18.5410 57.0634
55 -27.2394 53.4604
56 -35.2671 48.5410
57 -42.4264 42.4264
58 -48.5410 35.2671
59 -53.4604 27.2394
60 -57.0634 18.5410
61 -59.2613 9.3861
62 -60.0000 0.0000
63 -59.2613 -9.3861
64 -57.0634 -18.5410
65 -53.4604 -27.2394
66 -48.5410 -35.2671
67 -42.4264 -42.4264
68 -35.2671 -48.5410
69 -27.2394 -53.4604
70 -18.5410 -57.0634
71 -9.3861 -59.2613
72 -0.0000 -60.0000
73 9.3861 -59.2613
74 18.5410 -57.0634
75 27.2394 -53.4604
76 35.2671 -48.5410
77 42.4264 -42.4264
78 48.5410 -35.2671
79 53.4604 -27.2394
80 57.0634 -18.5410
81 59.2613 -9.3861
82 90.0000 0.0000
83 88.8920 14.0791
84 85.5951 27.8115
85 80.1906 40.8591
86 72.8115 52.9007
87 63.6396 63.6396
88 52.9007 72.8115
89 40.8591 80.1906
90 27.8115 85.5951
91 14.0791 88.8920
92 0.0000 90.0000
93 -14.0791 88.8920
94 -27.8115 85.5951
95 -40.8591 80.1906
96 -52.9007 72.8115
97 -63.6396 63.6396
98 -72.8115 52.9007
99 -80.1906 40.8591
100 -85.5951 27.8115
101 -88.8920 14.0791
102 -90.0000 0.0000
103 -88.8920 -14.0791
104 -85.5951 -27.8115
105 -80.1906 -40.8591
106 -72.8115 -52.9007
107 -63.6396 -63.6396
108 -52.9007 -72.8115
109 -40.8591 -80.1906
110 -27.8115 -85.5951
111 -14.0791 -88.8920
112 -0.0000 -90.0000
113 14.0791 -88.8920
114 27.8115 -85.5951
115 40.8591 -80.1906
116 52.9007 -72.8115
117 63.6396 -63.6396
118 72.8115 -52.9007
119 80.1906 -40.8591
120 85.5951 -27.8115
121 88.8920 -14.0791
122 120.0000 0.0000
123 118.5226 18.7721
124 114.1268 37.0820
125 106.9208 54.4789
126 97.0820 70.5342
127 84.8528 84.8528
128 70.5342 97.0820
129 54.4789 106.9208
130 37.0820 114.1268
131 18.7721 118.5226
132 0.0000 120.0000
133 -18.7721 118.5226
134 -37.0820 114.1268
135 -54.4789 106.9208
136 -70.5342 97.0820
137 -84.8528 84.8528
138 -97.0820 70.5342
139 -106.9208 54.4789
140 -114.1268 37.0820
141 -118.5226 18.7721
142 -120.0000 0.0000
143 -118.5226 -18.7721
144 -114.1268 -37.0820
145 -106.9208 -54.4789
146 -97.0820 -70.5342
147 -84.8528 -84.8528
148 -70.5342 -97.0820
149 -54.4789 -106.9208
150 -37.0820 -114.1268
151 -18.7721 -118.5226
152 -0.0000 -120.0000
153 18.7721 -118.5226
154 37.0820 -114.1268
155 54.4789 -106.9208
156 70.5342 -97.0820
157 84.8528 -84.8528
158 97.0820 -70.5342
159 106.9208 -54.4789
160 114.1268 -37.0820
161 118.5226 -18.7721
162 150.0000 0.0000
163 148.1533 23.4652
164 142.6585 46.3525
165 133.6510 68.0986
166 121.3525 88.1678
167 106.0660 106.0660
168 88.1678 121.3525
169 68.0986 133.6510
170 46.3525 142.6585
171 23.4652 148.1533
172 0.0000 150.0000
173 -23.4652 148.1533
174 -46.3525 142.6585
175 -68.0986 133.6510
176 -88.1678 121.3525
177 -106.0660 106.0660
178 -121.3525 88.1678
179 -133.6510 68.0986
180 -142.6585 46.3525
181 -148.1533 23.4652
182 -150.0000 0.0000
183 -148.1533 -23.4652
184 -142.6585 -46.3525
185 -133.6510 -68.0986
186 -121.3525 -88.1678
187 -106.0660 -106.0660
188 -88.1678 -121.3525
189 -68.0986 -133.6510
190 -46.3525 -142.6585
191 -23.4652 -148.1533
192 -0.0000 -150.0000
193 23.4652 -148.1533
194 46.3525 -142.6585
195 68.0986 -133.6510
196 88.1678 -121.3525
197 106.0660 -106.0660
198 121.3525 -88.1678
199 133.6510 -68.0986
200 142.6585 -46.3525
201 148.1533 -23.4652
202 180.0000 0.0000
203 177.7839 28.1582
204 171.1902 55.6231
205 160.3812 81.7183
206 145.6231 105.8013
207 127.2792 127.2792
208 105.8013 145.6231
209 81.7183 160.3812
210 55.6231 171.1902
211 28.1582 177.7839
212 0.0000 180.0000
213 -28.1582 177.7839
214 -55.6231 171.1902
215 -81.7183 160.3812
216 -105.8013 145.6231
217 -127.2792 127.2792
218 -145.6231 105.8013
219 -160.3812 81.7183
220 -171.1902 55.6231
221 -177.7839 28.1582
222 -180.0000 0.0000
223 -177.7839 -28.1582
224 -171.1902 -55.6231
225 -160.3812 -81.7183
226 -145.6231 -105.8013
227 -127.2792 -127.2792
228 -105.8013 -145.6231
229 -81.7183 -160.3812
230 -55.6231 -171.1902
231 -28.1582 -177.7839
232 -0.0000 -180.0000
233 28.1582 -177.7839
234 55.6231 -171.1902
235 81.7183 -160.3812
236 105.8013 -145.6231
237 127.2792 -127.2792
238 145.6231 -105.8013
239 160.3812 -81.7183
240 171.1902 -55.6231
241 177.7839 -28.1582
242 210.0000 0.0000
243 207.4146 32.8512
244 199.7219 64.8936
245 187.1114 95.3380
246 169.8936 123.4349
247 148.4924 148.4924
248 123.4349 169.8936
249 95.3380 187.1114
250 64.8936 199.7219
251 32.8512 207.4146
252 0.0000 210.0000
253 -32.8512 207.4146
254 -64.8936 199.7219
255 -95.3380 187.1114
256 -123.4349 169.8936
257 -148.4924 148.4924
258 -169.8936 123.4349
259 -187.1114 95.3380
260 -199.7219 64.8936
261 -207.4146 32.8512
262 -210.0000 0.0000
263 -207.4146 -32.8512
264 -199.7219 -64.8936
265 -187.1114 -95.3380
266 -169.8936 -123.4349
267 -148.4924 -148.4924
268 -123.4349 -169.8936
269 -95.3380 -187.1114
270 -64.8936 -199.7219
271 -32.8512 -207.4146
272 -0.0000 -210.0000
273 32.8512 -207.4146
274 64.8936 -199.7219
275 95.3380 -187.1114
276 123.4349 -169.8936
277 148.4924 -148.4924
278 169.8936 -123.4349
279 187.1114 -95.3380
280 199.7219 -64.8936
281 207.4146 -32.8512
282 240.0000 0.0000
283 237.0452 37.5443
284 228.2536 74.1641
285 213.8416 108.9577
286 194.1641 141.0685
287 169.7056 169.7056
288 141.0685 194.1641
289 108.9577 213.8416
290 74.1641 228.2536
291 37.5443 237.0452
292 0.0000 240.0000
293 -37.5443 237.0452
294 -74.1641 228.2536
295 -108.9577 213.8416
296 -141.0685 194.1641
297 -169.7056 169.7056
298 -194.1641 141.0685
299 -213.8416 108.9577
300 -228.2536 74.1641
301 -237.0452 37.5443
302 -240.0000 0.0000
303 -237.0452 -37.5443
304 -228.2536 -74.1641
305 -213.8416 -108.9577
306 -194.1641 -141.0685
307 -169.7056 -169.7056
308 -141.0685 -194.1641
309 -108.9577 -213.8416
310 -74.1641 -228.2536
311 -37.5443 -237.0452
312 -0.0000 -240.0000
313 37.5443 -237.0452
314 74.1641 -228.2536
315 108.9577 -213.8416
316 141.0685 -194.1641
317 169.7056 -169.7056
318 194.1641 -141.0685
319 213.8416 -108.9577
320 228.2536 -74.1641
321 237.0452 -37.5443
322 270.0000 0.0000
323 266.6759 42.2373
324 256.7853 83.4346
325 240.5718 122.5774
326 218.4346 158.7020
327 190.9188 190.9188
328 158.7020 218.4346
329 122.5774 240.5718
330 83.4346 256.7853
331 42.2373 266.6759
332 0.0000 270.0000
333 -42.2373 266.6759
334 -83.4346 256.7853
335 -122.5774 240.5718
336 -158.7020 218.4346
337 -190.9188 190.9188
338 -218.4346 158.7020
339 -240.5718 122.5774
340 -256.7853 83.4346
341 -266.6759 42.2373
342 -270.0000 0.0000
343 -266.6759 -42.2373
344 -256.7853 -83.4346
345 -240.5718 -122.5774
346 -218.4346 -158.7020
347 -190.9188 -190.9188
348 -158.7020 -218.4346
349 -122.5774 -240.5718
350 -83.4346 -256.7853
351 -42.2373 -266.6759
352 -0.0000 -270.0000
353 42.2373 -266.6759
354 83.4346 -256.7853
355 122.5774 -240.5718
356 158.7020 -218.4346
357 190.9188 -190.9188
358 218.4346 -158.7020
359 240.5718 -122.5774
360 256.7853 -83.4346
361 266.6759 -42.2373
362 300.0000 0.0000
363 296.3065 46.9303
364 285.3170 92.7051
365 267.3020 136.1971
366 242.7051 176.3356
367 212.1320 212.1320
368 176.3356 242.7051
369 136.1971 267.3020
370 92.7051 285.3170
371 46.9303 296.3065
372 0.0000 300.0000
373 -46.9303 296.3065
374 -92.7051 285.3170
375 -136.1971 267.3020
376 -176.3356 242.7051
377 -212.1320 212.1320
378 -242.7051 176.3356
379 -267.3020 136.1971
380 -285.3170 92.7051
381 -296.3065 46.9303
382 -300.0000 0.0000
383 -296.3065 -46.9303
384 -285.3170 -92.7051
385 -267.3020 -136.1971
386 -242.7051 -176.3356
387 -212.1320 -212.1320
388 -176.3356 -242.7051
389 -136.1971 -267.3020
390 -92.7051 -285.3170
391 -46.9303 -296.3065
392 -0.0000 -300.0000
393 46.9303 -296.3065
394 92.7051 -285.3170
395 136.1971 -267.3020
396 176.3356 -242.7051
397 212.1320 -212.1320
398 242.7051 -176.3356
399 267.3020 -136.1971
400 285.3170 -92.7051
401 296.3065 -46.9303
402 330.0000 0.0000
403 325.9372 51.6234
404 313.8487 101.9756
405 294.0322 149.8169
406 266.9756 193.9691
407 233.3452 233.3452
408 193.9691 266.9756
409 149.8169 294.0322
410 101.9756 313.8487
411 51.6234 325.9372
412 0.0000 330.0000
413 -51.6234 325.9372
414 -101.9756 313.8487
415 -149.8169 294.0322
416 -193.9691 266.9756
417 -233.3452 233.3452
418 -266.9756 193.9691
419 -294.0322 149.8169
420 -313.8487 101.9756
421 -325.9372 51.6234
422 -330.0000 0.0000
423 -325.9372 -51.6234
424 -313.8487 -101.9756
425 -294.0322 -149.8169
426 -266.9756 -193.9691
427 -233.3452 -233.3452
428 -193.9691 -266.9756
429 -149.8169 -294.0322
430 -101.9756 -313.8487
431 -51.6234 -325.9372
432 -0.0000 -330.0000
433 51.6234 -325.9372
434 101.9756 -313.8487
435 149.8169 -294.0322
436 193.9691 -266.9756
437 233.3452 -233.3452
438 266.9756 -193.9691
439 294.0322 -149.8169
440 313.8487 -101.9756
441 325.9372 -51.6234
442 360.0000 0.0000
443 355.5678 56.3164
444 342.3803 111.2461
445 320.7623 163.4366
446 291.2461 211.6027
447 254.5584 254.5584
448 211.6027 291.2461
449 163.4366 320.7623
450 111.2461 342.3803
451 56.3164 355.5678
452 0.0000 360.0000
453 -56.3164 355.5678
454 -111.2461 342.3803
455 -163.4366 320.7623
456 -211.6027 291.2461
457 -254.5584 254.5584
458 -291.2461 211.6027
459 -320.7623 163.4366
460 -342.3803 111.2461
461 -355.5678 56.3164
462 -360.0000 0.0000
463 -355.5678 -56.3164
464 -342.3803 -111.2461
465 -320.7623 -163.4366
466 -291.2461 -211.6027
467 -254.5584 -254.5584
468 -211.6027 -291.2461
469 -163.4366 -320.7623
470 -111.2461 -342.3803
471 -56.3164 -355.5678
472 -0.0000 -360.0000
473 56.3164 -355.5678
474 111.2461 -342.3803
475 163.4366 -320.7623
476 211.6027 -291.2461
477 254.5584 -254.5584
478 291.2461 -211.6027
479 320.7623 -163.4366
480 342.3803 -111.2461
481 355.5678 -56.3164
482 390.0000 0.0000
483 385.1985 61.0094
484 370.9120 120.5166
485 347.4925 177.0563
486 315.5166 229.2362
487 275.7716 275.7716
488 229.2362 315.5166
489 177.0563 347.4925
490 120.5166 370.9120
491 61.0094 385.1985
492 0.0000 390.0000
493 -61.0094 385.1985
494 -120.5166 370.9120
495 -177.0563 347.4925
496 -229.2362 315.5166
497 -275.7716 275.7716
498 -315.5166 229.2362
499 -347.4925 177.0563
500 -370.9120 120.5166
501 -385.1985 61.0094
502 -390.0000 0.0000
503 -385.1985 -61.0094
504 -370.9120 -120.5166
505 -347.4925 -177.0563
506 -315.5166 -229.2362
507 -275.7716 -275.7716
508 -229.2362 -315.5166
509 -177.0563 -347.4925
510 -120.5166 -370.9120
511 -61.0094 -385.1985
512 -0.0000 -390.0000
513 61.0094 -385.1985
514 120.5166 -370.9120
515 177.0563 -347.4925
516 229.2362 -315.5166
517 275.7716 -275.7716
518 315.5166 -229.2362
519 347.4925 -177.0563
520 370.9120 -120.5166
521 385.1985 -61.0094
522 420.0000 0.0000
523 414.8291 65.7025
524 399.4437 129.7871
525 374.2227 190.6760
526 339.7871 246.8698
527 296.9848 296.9848
528 246.8698 339.7871
529 190.6760 374.2227
530 129.7871 399.4437
531 65.7025 414.8291
532 0.0000 420.0000
533 -65.7025 414.8291
534 -129.7871 399.4437
535 -190.6760 374.2227
536 -246.8698 339.7871
537 -296.9848 296.9848
538 -339.7871 246.8698
539 -374.2227 190.6760
540 -399.4437 129.7871
541 -414.8291 65.7025
542 -420.0000 0.0000
543 -414.8291 -65.7025
544 -399.4437 -129.7871
545 -374.2227 -190.6760
546 -339.7871 -246.8698
547 -296.9848 -296.9848
548 -246.8698 -339.7871
549 -190.6760 -374.2227
550 -129.7871 -399.4437
551 -65.7025 -414.8291
552 -0.0000 -420.0000
553 65.7025 -414.8291
554 129.7871 -399.4437
555 190.6760 -374.2227
556 246.8698 -339.7871
557 296.9848 -296.9848
558 339.7871 -246.8698
559 374.2227 -190.6760
560 399.4437 -129.7871
561 414.8291 -65.7025
562 450.0000 0.0000
563 444.4598 70.3955
564 427.9754 139.0576
565 400.9529 204.2957
566 364.0576 264.5034
567 318.1981 318.1981
568 264.5034 364.0576
569 204.2957 400.9529
570 139.0576 427.9754
571 70.3955 444.4598
572 0.0000 450.0000
573 -70.3955 444.4598
574 -139.0576 427.9754
575 -204.2957 400.9529
576 -264.5034 364.0576
577 -318.1981 318.1981
578 -364.0576 264.5034
579 -400.9529 204.2957
580 -427.9754 139.0576
581 -444.4598 70.3955
582 -450.0000 0.0000
583 -444.4598 -70.3955
584 -427.9754 -139.0576
585 -400.9529 -204.2957
586 -364.0576 -264.5034
587 -318.1981 -318.1981
588 -264.5034 -364.0576
589 -204.2957 -400.9529
590 -139.0576 -427.9754
591 -70.3955 -444.4598
592 -0.0000 -450.0000
593 70.3955 -444.4598
594 139.0576 -427.9754
595 204.2957 -400.9529
596 264.5034 -364.0576
597 318.1981 -318.1981
598 364.0576 -264.5034
599 400.9529 -204.2957
600 427.9754 -139.0576
601 444.4598 -70.3955
602 480.0000 0.0000
603 474.0904 75.0885
604 456.5071 148.3282
605 427.6831 217.9154
606 388.3282 282.1369
607 339.4113 339.4113
608 282.1369 388.3282
609 217.9154 427.6831
610 148.3282 456.5071
611 75.0885 474.0904
612 0.0000 480.0000
613 -75.0885 474.0904
614 -148.3282 456.5071
615 -217.9154 427.6831
616 -282.1369 388.3282
617 -339.4113 339.4113
618 -388.3282 282.1369
619 -427.6831 217.9154
620 -456.5071 148.3282
621 -474.0904 75.0885
622 -480.0000 0.0000
623 -474.0904 -75.0885
624 -456.5071 -148.3282
625 -427.6831 -217.9154
626 -388.3282 -282.1369
627 -339.4113 -339.4113
628 -282.1369 -388.3282
629 -217.9154 -427.6831
630 -148.3282 -456.5071
631 -75.0885 -474.0904
632 -0.0000 -480.0000
633 75.0885 -474.0904
634 148.3282 -456.5071
635 217.9154 -427.6831
636 282.1369 -388.3282
637 339.4113 -339.4113
638 388.3282 -282.1369
639 427.6831 -217.9154
640 456.5071 -148.3282
641 474.0904 -75.0885
642 510.0000 0.0000
643 503.7211 79.7816
644 485.0388 157.5987
645 454.4133 231.5352
646 412.5987 299.7705
647 360.6245 360.6245
648 299.7705 412.5987
649 231.5352 454.4133
650 157.5987 485.0388
651 79.7816 503.7211
652 0.0000 510.0000
653 -79.7816 503.7211
654 -157.5987 485.0388
655 -231.5352 454.4133
656 -299.7705 412.5987
657 -360.6245 360.6245
658 -412.5987 299.7705
659 -454.4133 231.5352
660 -485.0388 157.5987
661 -503.7211 79.7816
662 -510.0000 0.0000
663 -503.7211 -79.7816
664 -485.0388 -157.5987
665 -454.4133 -231.5352
666 -412.5987 -299.7705
667 -360.6245 -360.6245
668 -299.7705 -412.5987
669 -231.5352 -454.4133
670 -157.5987 -485.0388
671 -79.7816 -503.7211
672 -0.0000 -510.0000
673 79.7816 -503.7211
674 157.5987 -485.0388
675 231.5352 -454.4133
676 299.7705 -412.5987
677 360.6245 -360.6245
678 412.5987 -299.7705
679 454.4133 -231.5352
680 485.0388 -157.5987
681 503.7211 -79.7816
682 540.0000 0.0000
683 533.3517 84.4746
684 513.5705 166.8692
685 481.1435 245.1549
686 436.8692 317.4040
687 381.8377 381.8377
688 317.4040 436.8692
689 245.1549 481.1435
690 166.8692 513.5705
691 84.4746 533.3517
692 0.0000 540.0000
693 -84.4746 533.3517
694 -166.8692 513.5705
695 -245.1549 481.1435
696 -317.4040 436.8692
697 -381.8377 381.8377
698 -436.8692 317.4040
699 -481.1435 245.1549
700 -513.5705 166.8692
701 -533.3517 84.4746
702 -540.0000 0.0000
703 -533.3517 -84.4746
704 -513.5705 -166.8692
705 -481.1435 -245.1549
706 -436.8692 -317.4040
707 -381.8377 -381.8377
708 -317.4040 -436.8692
709 -245.1549 -481.1435
710 -166.8692 -513.5705
711 -84.4746 -533.3517
712 -0.0000 -540.0000
713 84.4746 -533.3517
714 166.8692 -513.5705
715 245.1549 -481.1435
716 317.4040 -436.8692
717 381.8377 -381.8377
718 436.8692 -317.4040
719 481.1435 -245.1549
720 513.5705 -166.8692
721 533.3517 -84.4746
722 570.0000 0.0000
723 562.9824 89.1676
724 542.1022 176.1397
725 507.8737 258.7746
726 461.1397 335.0376
727 403.0509 403.0509
728 335.0376 461.1397
729 258.7746 507.8737
730 176.1397 542.1022
731 89.1676 562.9824
732 0.0000 570.0000
733 -89.1676 562.9824
734 -176.1397 542.1022
735 -258.7746 507.8737
736 -335.0376 461.1397
737 -403.0509 403.0509
738 -461.1397 335.0376
739 -507.8737 258.7746
740 -542.1022 176.1397
741 -562.9824 89.1676
742 -570.0000 0.0000
743 -562.9824 -89.1676
744 -542.1022 -176.1397
745 -507.8737 -258.7746
746 -461.1397 -335.0376
747 -403.0509 -403.0509
748 -335.0376 -461.1397
749 -258.7746 -507.8737
750 -176.1397 -542.1022
751 -89.1676 -562.9824
752 -0.0000 -570.0000
753 89.1676 -562.9824
754 176.1397 -542.1022
755 258.7746 -507.8737
756 335.0376 -461.1397
757 403.0509 -403.0509
758 461.1397 -335.0376
759 507.8737 -258.7746
760 542.1022 -176.1397
761 562.9824 -89.1676
762 600.0000 0.0000
763 592.6130 93.8607
764 570.6339 185.4102
765 534.6039 272.3943
766 485.4102 352.6712
767 424.2641 424.2641
768 352.6712 485.4102
769 272.3943 534.6039
770 185.4102 570.6339
771 93.8607 592.6130
772 0.0000 600.0000
773 -93.8607 592.6130
774 -185.4102 570.6339
775 -272.3943 534.6039
776 -352.6712 485.4102
777 -424.2641 424.2641
778 -485.4102 352.6712
779 -534.6039 272.3943
780 -570.6339 185.4102
781 -592.6130 93.8607
782 -600.0000 0.0000
783 -592.6130 -93.8607
784 -570.6339 -185.4102
785 -534.6039 -272.3943
786 -485.4102 -352.6712
787 -424.2641 -424.2641
788 -352.6712 -485.4102
789 -272.3943 -534.6039
790 -185.4102 -570.6339
791 -93.8607 -592.6130
792 -0.0000 -600.0000
793 93.8607 -592.6130
794 185.4102 -570.6339
795 272.3943 -534.6039
796 352.6712 -485.4102
797 424.2641 -424.2641
798 485.4102 -352.6712
799 534.6039 -272.3943
800 570.6339 -185.4102
801 592.6130 -93.8607
802 630.0000 0.0000
803 622.2437 98.5537
804 599.1656 194.6807
805 561.3341 286.0140
806 509.6807 370.3047
807 445.4773 445.4773
808 370.3047 509.6807
809 286.0140 561.3341
810 194.6807 599.1656
811 98.5537 622.2437
812 0.0000 630.0000
813 -98.5537 622.2437
814 -194.6807 599.1656
815 -286.0140 561.3341
816 -370.3047 509.6807
817 -445.4773 445.4773
818 -509.6807 370.3047
819 -561.3341 286.0140
820 -599.1656 194.6807
821 -622.2437 98.5537
822 -630.0000 0.0000
823 -622.2437 -98.5537
824 -599.1656 -194.6807
825 -561.3341 -286.0140
826 -509.6807 -370.3047
827 -445.4773 -445.4773
828 -370.3047 -509.6807
829 -286.0140 -561.3341
830 -194.6807 -599.1656
831 -98.5537 -622.2437
832 -0.0000 -630.0000
833 98.5537 -622.2437
834 194.6807 -599.1656
835 286.0140 -561.3341
836 370.3047 -509.6807
837 445.4773 -445.4773
838 509.6807 -370.3047
839 561.3341 -286.0140
840 599.1656 -194.6807
841 622.2437 -98.5537
842 660.0000 0.0000
843 651.8743 103.2467
844 627.6973 203.9512
845 588.0643 299.6337
846 533.9512 387.9383
847 466.6905 466.6905
848 387.9383 533.9512
849 299.6337 588.0643
850 203.9512 627.6973
851 103.2467 651.8743
852 0.0000 660.0000
853 -103.2467 651.8743
854 -203.9512 627.6973
855 -299.6337 588.0643
856 -387.9383 533.9512
857 -466.6905 466.6905
858 -533.9512 387.9383
859 -588.0643 299.6337
860 -627.6973 203.9512
861 -651.8743 103.2467
862 -660.0000 0.0000
863 -651.8743 -103.2467
864 -627.6973 -203.9512
865 -588.0643 -299.6337
866 -533.9512 -387.9383
867 -466.6905 -466.6905
868 -387.9383 -533.9512
869 -299.6337 -588.0643
870 -203.9512 -627.6973
871 -103.2467 -651.8743
872 -0.0000 -660.0000
873 103.2467 -651.8743
874 203.9512 -627.6973
875 299.6337 -588.0643
876 387.9383 -533.9512
877 466.6905 -466.6905
878 533.9512 -387.9383
879 588.0643 -299.6337
880 627.6973 -203.9512
881 651.8743 -103.2467
882 690.0000 0.0000
883 681.5050 107.9398
884 656.2290 213.2217
885 614.7945 313.2534
886 558.2217 405.5718
887 487.9037 487.9037
888 405.5718 558.2217
889 313.2534 614.7945
890 213.2217 656.2290
891 107.9398 681.5050
892 0.0000 690.0000
893 -107.9398 681.5050
894 -213.2217 656.2290
895 -313.2534 614.7945
896 -405.5718 558.2217
897 -487.9037 487.9037
898 -558.2217 405.5718
899 -614.7945 313.2534
900 -656.2290 213.2217
901 -681.5050 107.9398
902 -690.0000 0.0000
903 -681.5050 -107.9398
904 -656.2290 -213.2217
905 -614.7945 -313.2534
906 -558.2217 -405.5718
907 -487.9037 -487.9037
908 -405.5718 -558.2217
909 -313.2534 -614.7945
910 -213.2217 -656.2290
911 -107.9398 -681.5050
912 -0.0000 -690.0000
913 107.9398 -681.5050
914 213.2217 -656.2290
915 313.2534 -614.7945
916 405.5718 -558.2217
917 487.9037 -487.9037
918 558.2217 -405.5718
919 614.7945 -313.2534
920 656.2290 -213.2217
921 681.5050 -107.9398
922 720.0000 0.0000
923 711.1356 112.6328
924 684.7607 222.4922
925 641.5247 326.8732
926 582.4922 423.2054
927 509.1169 509.1169
928 423.2054 582.4922
929 326.8732 641.5247
930 222.4922 684.7607
931 112.6328 711.1356
932 0.0000 720.0000
933 -112.6328 711.1356
934 -222.4922 684.7607
935 -326.8732 641.5247
936 -423.2054 582.4922
937 -509.1169 509.1169
938 -582.4922 423.2054
939 -641.5247 326.8732
940 -684.7607 222.4922
941 -711.1356 112.6328
942 -720.0000 0.0000
943 -711.1356 -112.6328
944 -684.7607 -222.4922
945 -641.5247 -326.8732
946 -582.4922 -423.2054
947 -509.1169 -509.1169
948 -423.2054 -582.4922
949 -326.8732 -641.5247
950 -222.4922 -684.7607
951 -112.6328 -711.1356
952 -0.0000 -720.0000
953 112.6328 -711.1356
954 222.4922 -684.7607
955 326.8732 -641.5247
956 423.2054 -582.4922
957 509.1169 -509.1169
958 582.4922 -423.2054
959 641.5247 -326.8732
960 684.7607 -222.4922
961 711.1356 -112.6328
DEMAND&PROFITS_SECTION
1 0 0
2 10 13
3 30 32
4 30 36
5 10 11
6 10 10
7 30 27
8 30 29
9 10 10
10 10 6
11 30 40
12 30 37
13 10 6
14 10 9
15 30 23
16 30 22
17 10 8
18 10 6
19 30 18
20 30 37
21 10 10
22 10 9
23 30 17
24 30 22
25 10 7
26 10 14
27 30 42
28 30 29
29 10 8
30 10 8
31 30 23
32 30 22
33 10 5
34 10 15
35 30 27
36 30 17
37 10 6
38 10 8
39 30 41
40 30 39
41 10 13
42 10 6
43 30 33
44 30 39
45 10 10
46 10 14
47 30 38
48 30 36
49 10 14
50 10 11
51 30 25
52 30 33
53 10 6
54 10 6
55 30 41
56 30 38
57 10 10
58 10 13
59 30 23
60 30 34
61 10 10
62 10 14
63 30 42
64 30 29
65 10 10
66 10 13
67 30 17
68 30 18
69 10 7
70 10 14
71 30 37
72 30 39
73 10 15
74 10 7
75 30 22
76 30 33
77 10 14
78 10 14
79 30 39
80 30 34
81 10 12
82 10 9
83 30 27
84 30 36
85 10 6
86 10 14
87 30 37
88 30 35
89 10 7
90 10 10
91 30 17
92 30 44
93 10 10
94 10 8
95 30 40
96 30 43
97 10 15
98 10 14
99 30 17
100 30 21
101 10 6
102 10 14
103 30 32
104 30 32
105 10 7
106 10 7
107 30 31
108 30 25
109 10 5
110 10 12
111 30 18
112 30 36
113 10 7
114 10 13
115 30 25
116 30 21
117 10 8
118 10 5
119 30 20
120 30 24
121 10 15
122 10 7
123 30 30
124 30 25
125 10 7
126 10 12
127 30 31
128 30 25
129 10 11
130 10 14
131 30 26
132 30 32
133 10 14
134 10 8
135 30 24
136 30 30
137 10 15
138 10 13
139 30 29
140 30 27
141 10 14
142 10 13
143 30 27
144 30 35
145 10 11
146 10 13
147 30 32
148 30 22
149 10 7
150 10 9
151 30 22
152 30 16
153 10 11
154 10 15
155 30 26
156 30 36
157 10 7
158 10 11
159 30 38
160 30 16
161 10 12
162 10 8
163 30 33
164 30 18
165 10 8
166 10 8
167 30 43
168 30 45
169 10 15
170 10 7
171 30 26
172 30 21
173 10 13
174 10 6
175 30 35
176 30 33
177 10 10
178 10 12
179 30 16
180 30 31
181 10 10
182 10 14
183 30 29
184 30 38
185 10 11
186 10 15
187 30 39
188 30 19
189 10 12
190 10 14
191 30 40
192 30 42
193 10 10
194 10 12
195 30 18
196 30 36
197 10 8
198 10 6
199 30 42
200 30 38
201 10 10
202 10 9
203 30 23
204 30 23
205 10 11
206 10 13
207 30 19
208 30 17
209 10 15
210 10 15
211 30 17
212 30 23
213 10 15
214 10 6
215 30 23
216 30 39
217 10 7
218 10 11
219 30 35
220 30 22
221 10 5
222 10 10
223 30 26
224 30 22
225 10 11
226 10 8
227 30 36
228 30 18
229 10 8
230 10 14
231 30 20
232 30 30
233 10 10
234 10 11
235 30 24
236 30 33
237 10 7
238 10 10
239 30 32
240 30 37
241 10 14
242 10 14
243 30 16
244 30 42
245 10 8
246 10 8
247 30 40
248 30 42
249 10 13
250 10 5
251 30 28
252 30 28
253 10 14
254 10 14
255 30 25
256 30 40
257 10 10
258 10 12
259 30 38
260 30 28
261 10 9
262 10 5
263 30 37
264 30 34
265 10 13
266 10 5
267 30 29
268 30 31
269 10 11
270 10 14
271 30 34
272 30 29
273 10 12
274 10 7
275 30 31
276 30 43
277 10 13
278 10 8
279 30 42
280 30 43
281 10 14
282 10 14
283 30 21
284 30 30
285 10 15
286 10 12
287 30 22
288 30 20
289 10 7
290 10 10
291 30 15
292 30 25
293 10 5
294 10 11
295 30 22
296 30 20
297 10 9
298 10 12
299 30 35
300 30 40
301 10 8
302 10 6
303 30 22
304 30 22
305 10 15
306 10 6
307 30 26
308 30 20
309 10 11
310 10 8
311 30 30
312 30 26
313 10 13
314 10 13
315 30 16
316 30 37
317 10 10
318 10 6
319 30 26
320 30 17
321 10 9
322 10 6
323 30 21
324 30 17
325 10 6
326 10 14
327 30 21
328 30 24
329 10 6
330 10 5
331 30 19
332 30 28
333 10 6
334 10 8
335 30 24
336 30 32
337 10 9
338 10 10
339 30 33
340 30 41
341 10 6
342 10 12
343 30 25
344 30 44
345 10 5
346 10 13
347 30 26
348 30 45
349 10 13
350 10 8
351 30 39
352 30 43
353 10 12
354 10 5
355 30 44
356 30 27
357 10 8
358 10 6
359 30 29
360 30 22
361 10 13
362 10 10
363 30 37
364 30 32
365 10 13
366 10 8
367 30 27
368 30 22
369 10 6
370 10 14
371 30 26
372 30 26
373 10 13
374 10 5
375 30 31
376 30 24
377 10 7
378 10 15
379 30 27
380 30 38
381 10 13
382 10 13
383 30 19
384 30 28
385 10 10
386 10 14
387 30 23
388 30 29
389 10 10
390 10 11
391 30 21
392 30 19
393 10 13
394 10 7
395 30 25
396 30 38
397 10 5
398 10 9
399 30 15
400 30 24
401 10 9
402 10 15
403 30 34
404 30 16
405 10 10
406 10 7
407 30 41
408 30 24
409 10 11
410 10 6
411 30 36
412 30 20
413 10 15
414 10 11
415 30 17
416 30 20
417 10 10
418 10 15
419 30 28
420 30 34
421 10 9
422 10 13
423 30 21
424 30 27
425 10 10
426 10 8
427 30 27
428 30 44
429 10 8
430 10 9
431 30 28
432 30 28
433 10 10
434 10 8
435 30 32
436 30 28
437 10 7
438 10 12
439 30 39
440 30 36
441 10 15
442 10 5
443 30 32
444 30 40
445 10 5
446 10 14
447 30 27
448 30 27
449 10 10
450 10 11
451 30 18
452 30 20
453 10 14
454 10 11
455 30 41
456 30 41
457 10 7
458 10 10
459 30 34
460 30 20
461 10 12
462 10 11
463 30 40
464 30 43
465 10 14
466 10 10
467 30 35
468 30 40
469 10 9
470 10 7
471 30 27
472 30 44
473 10 6
474 10 8
475 30 37
476 30 44
477 10 12
478 10 5
479 30 22
480 30 42
481 10 9
482 10 7
483 30 42
484 30 38
485 10 7
486 10 13
487 30 44
488 30 30
489 10 5
490 10 8
491 30 26
492 30 26
493 10 9
494 10 13
495 30 40
496 30 26
497 10 11
498 10 11
499 30 34
500 30 25
501 10 12
502 10 13
503 30 27
504 30 23
505 10 7
506 10 12
507 30 16
508 30 21
509 10 10
510 10 10
511 30 44
512 30 20
513 10 13
514 10 11
515 30 29
516 30 35
517 10 14
518 10 7
519 30 35
520 30 21
521 10 13
522 10 7
523 30 34
524 30 40
525 10 10
526 10 7
527 30 41
528 30 23
529 10 7
530 10 13
531 30 34
532 30 22
533 10 14
534 10 15
535 30 41
536 30 29
537 10 10
538 10 10
539 30 33
540 30 41
541 10 8
542 10 11
543 30 40
544 30 35
545 10 13
546 10 13
547 30 41
548 30 44
549 10 8
550 10 5
551 30 40
552 30 17
553 10 7
554 10 5
555 30 20
556 30 36
557 10 6
558 10 12
559 30 35
560 30 41
561 10 11
562 10 5
563 30 31
564 30 15
565 10 14
566 10 5
567 30 41
568 30 32
569 10 14
570 10 8
571 30 41
572 30 21
573 10 14
574 10 5
575 30 39
576 30 28
577 10 12
578 10 12
579 30 19
580 30 32
581 10 8
582 10 12
583 30 34
584 30 25
585 10 9
586 10 7
587 30 44
588 30 20
589 10 7
590 10 15
591 30 19
592 30 19
593 10 8
594 10 10
595 30 40
596 30 39
597 10 8
598 10 11
599 30 43
600 30 37
601 10 10
602 10 14
603 30 24
604 30 23
605 10 8
606 10 8
607 30 29
608 30 34
609 10 13
610 10 11
611 30 15
612 30 43
613 10 13
614 10 8
615 30 25
616 30 26
617 10 12
618 10 11
619 30 38
620 30 38
621 10 8
622 10 7
623 30 35
624 30 36
625 10 11
626 10 5
627 30 43
628 30 15
629 10 13
630 10 7
631 30 35
632 30 30
633 10 8
634 10 7
635 30 21
636 30 16
637 10 7
638 10 10
639 30 34
640 30 17
641 10 11
642 10 9
643 30 21
644 30 40
645 10 8
646 10 5
647 30 25
648 30 17
649 10 10
650 10 8
651 30 18
652 30 31
653 10 6
654 10 8
655 30 21
656 30 34
657 10 8
658 10 10
659 30 32
660 30 36
661 10 13
662 10 10
663 30 24
664 30 34
665 10 6
666 10 14
667 30 26
668 30 20
669 10 15
670 10 5
671 30 42
672 30 37
673 10 15
674 10 6
675 30 45
676 30 42
677 10 8
678 10 11
679 30 43
680 30 30
681 10 8
682 10 5
683 30 35
684 30 40
685 10 13
686 10 11
687 30 29
688 30 45
689 10 6
690 10 6
691 30 43
692 30 30
693 10 11
694 10 11
695 30 21
696 30 29
697 10 6
698 10 8
699 30 22
700 30 28
701 10 6
702 10 10
703 30 20
704 30 15
705 10 13
706 10 7
707 30 32
708 30 36
709 10 6
710 10 10
711 30 22
712 30 39
713 10 7
714 10 12
715 30 24
716 30 31
717 10 9
718 10 6
719 30 40
720 30 39
721 10 6
722 10 10
723 30 36
724 30 19
725 10 9
726 10 8
727 30 18
728 30 40
729 10 10
730 10 11
731 30 33
732 30 37
733 10 12
734 10 8
735 30 30
736 30 25
737 10 13
738 10 7
739 30 34
740 30 23
741 10 8
742 10 15
743 30 42
744 30 20
745 10 9
746 10 5
747 30 19
748 30 41
749 10 15
750 10 6
751 30 34
752 30 40
753 10 11
754 10 13
755 30 45
756 30 32
757 10 14
758 10 11
759 30 29
760 30 38
761 10 15
762 10 7
763 30 16
764 30 40
765 10 10
766 10 10
767 30 42
768 30 38
769 10 14
770 10 6
771 30 16
772 30 31
773 10 5
774 10 8
775 30 45
776 30 44
777 10 14
778 10 14
779 30 42
780 30 36
781 10 6
782 10 5
783 30 24
784 30 22
785 10 9
786 10 7
787 30 36
788 30 25
789 10 10
790 10 14
791 30 29
792 30 18
793 10 6
794 10 9
795 30 22
796 30 27
797 10 8
798 10 14
799 30 36
800 30 27
801 10 8
802 10 6
803 30 27
804 30 35
805 10 9
806 10 11
807 30 39
808 30 42
809 10 12
810 10 14
811 30 31
812 30 17
813 10 15
814 10 13
815 30 23
816 30 19
817 10 5
818 10 12
819 30 21
820 30 24
821 10 9
822 10 5
823 30 44
824 30 22
825 10 7
826 10 11
827 30 33
828 30 30
829 10 5
830 10 14
831 30 31
832 30 22
833 10 11
834 10 9
835 30 28
836 30 25
837 10 11
838 10 10
839 30 32
840 30 16
841 10 15
842 10 6
843 30 36
844 30 42
845 10 11
846 10 9
847 30 41
848 30 16
849 10 11
850 10 12
851 30 40
852 30 34
853 10 11
854 10 11
855 30 41
856 30 42
857 10 8
858 10 10
859 30 38
860 30 27
861 10 6
862 10 10
863 30 40
864 30 39
865 10 9
866 10 7
867 30 18
868 30 21
869 10 8
870 10 13
871 30 38
872 30 19
873 10 11
874 10 8
875 30 23
876 30 24
877 10 7
878 10 7
879 30 44
880 30 29
881 10 14
882 10 6
883 30 29
884 30 23
885 10 11
886 10 6
887 30 30
888 30 29
889 10 5
890 10 9
891 30 25
892 30 17
893 10 12
894 10 8
895 30 34
896 30 36
897 10 14
898 10 12
899 30 20
900 30 25
901 10 8
902 10 10
903 30 22
904 30 39
905 10 9
906 10 8
907 30 36
908 30 32
909 10 12
910 10 9
911 30 39
912 30 41
913 10 12
914 10 7
915 30 37
916 30 17
917 10 6
918 10 10
919 30 16
920 30 25
921 10 12
922 10 13
923 30 29
924 30 16
925 10 5
926 10 12
927 30 21
928 30 43
929 10 14
930 10 15
931 30 15
932 30 20
933 10 7
934 10 9
935 30 21
936 30 24
937 10 15
938 10 12
939 30 37
940 30 36
941 10 9
942 10 5
943 30 41
944 30 24
945 10 6
946 10 15
947 30 20
948 30 39
949 10 8
950 10 8
951 30 26
952 30 31
953 10 9
954 10 13
955 30 37
956 30 41
957 10 9
958 10 8
959 30 27
960 30 29
961 10 12
DEPOT_SECTION
1
-1
EOF
